c ---- [ banner ] ------------------------------------------------------------
c
c Kissat SAT Solver
c 
c Copyright (c) 2021-2024 Armin Biere University of Freiburg
c Copyright (c) 2019-2021 Armin Biere Johannes Kepler University Linz
c 
c Version 4.0.1 43f02cf3e992cb44653b35e5cb26f93281552ae0
c gcc (Ubuntu 13.2.0-23ubuntu4) 13.2.0 -W -Wall -O3 -DNDEBUG
c Thu Sep 12 12:27:46 CEST 2024 Linux abryzen9 6.8.0-41-generic x86_64
c
c ---- [ parsing ] -----------------------------------------------------------
c
c opened and reading DIMACS file:
c
c   /data/artifact/AMulet2.0_artifact/exp4/cnf_compress2rs_64/64_64_U1_DT_KS_Multgen_compress2rs.cnf
c
c parsed 'p cnf 34989 136639' header
c closing input after reading 2657252 bytes (3 MB)
c finished parsing after 0.02 seconds
c
c ---- [ options ] -----------------------------------------------------------
c
c --stable=0                       (different from default '1')
c
c ---- [ solving ] -----------------------------------------------------------
c
c  seconds switched rate     size/glue tier1  binary           remaining
c         MB reductions conflicts size  tier2     irredundant
c          level restarts redundant glue  trail           variables
c
c *  0.02 10 0 0 0  0 0   0   0 0.0 0 0 0 0 0% 28092 108545 34986 100%
c (  0.03 12 0 0 0  0 0   0   0 0.0 0 0 0 0 0% 28092 108545 34986 100%
c .  0.04 13 0 0 0  0 0   0   0 0.0 0 0 0 0 0% 28088 108545 34986 100%
c c  0.10 20 0 0 0  0 0   0   0 0.0 0 0 0 0 0% 34993 94737 31534 90%
c d  0.11 20 0 0 0  0 0   0   0 0.0 0 0 0 0 0% 28089 94737 31534 90%
c =  0.15 20 0 0 0  0 0   0   0 0.0 0 0 0 0 0% 28557 94737 31300 89%
c d  0.15 20 0 0 0  0 0   0   0 0.0 0 0 0 0 0% 28089 94737 31300 89%
c f  0.23 19 0 0 0  0 0   0   0 0.0 0 0 0 0 0% 31084 89977 33065 95%
c e  0.33 28 0 0 0  0 0   0   0 0.0 0 0 0 0 0% 9724 103714 22093 63%
c )  0.33 28 0 0 0  0 0   0   0 0.0 0 0 0 0 0% 9724 103714 22093 63%
c {  0.34 28 0 0 0  0 0   0   0 0.0 0 0 2 6 0% 9724 103714 22093 63%
c -  0.46 28 123 0 1 215 29 1000 780 2.6 12 5 3 9 18% 9763 103714 22093 63%
c -  0.73 28 157 0 2 497 38 2000 1560 3.5 18 5 3 10 24% 9779 103714 22093 63%
c c  0.81 24 260 0 2 524 39 2505 1988 3.4 17 5 3 10 23% 9791 103693 22088 63%
c d  0.81 24 260 0 2 524 39 2505 1988 3.4 17 5 3 10 23% 9781 103693 22088 63%
c u  0.83 24 260 0 2 524 39 2505 1453 3.4 17 5 3 10 23% 9784 103693 22088 63%
c v  0.84 24 260 0 2 524 39 2505 1240 3.4 17 5 3 10 23% 9784 103693 22088 63%
c w  0.86 24 260 0 2 524 39 2505 1240 3.4 17 5 3 10 23% 9784 103693 22088 63%
c x  0.88 24 260 0 2 524 39 2505 1240 3.4 17 5 3 10 23% 9784 103680 22088 63%
c =  0.98 24 260 0 2 524 39 2505 1240 3.4 17 5 3 10 23% 10098 103678 21931 63%
c
c  seconds   switched   rate       size/glue tier1     binary          remaining
c         MB  reductions conflicts       size  tier2      irredundant
c           level restarts    redundant    glue    trail          variables
c
c d  0.98 24 260 0 2 524 39 2505 1222 3.4 17 5 3 10 23% 9777 103678 21931 63%
c f  1.04 24 260 0 2 524 39 2505 1222 3.4 17 5 3 10 23% 10442 102413 22531 64%
c u  1.07 24 260 0 2 524 39 2505 1170 3.4 17 5 3 10 23% 10442 102413 22531 64%
c v  1.09 28 260 0 2 524 39 2505 1133 3.4 17 5 3 10 23% 10442 102413 22531 64%
c w  1.10 28 260 0 2 524 39 2505 1129 3.4 17 5 3 10 23% 10442 102413 22531 64%
c =  1.16 28 260 0 2 524 39 2505 1129 3.4 17 5 3 10 23% 10878 102413 22313 64%
c d  1.16 28 260 0 2 524 39 2505 1129 3.4 17 5 3 10 23% 10379 102413 22313 64%
c f  1.19 28 260 0 2 524 39 2505 1129 3.4 17 5 3 10 23% 10957 101546 22602 65%
c -  1.36 28 277 0 3 653 38 3414 1659 3.4 18 5 3 10 24% 10995 101546 22602 65%
c -  1.56 28 328 0 4 837 37 5148 2805 3.5 18 5 2 9 23% 11050 101546 22602 65%
c -  1.98 28 330 0 5 1118 37 7149 3966 4.4 24 6 2 8 24% 11101 101546 22602 65%
c c  2.12 28 328 0 5 1175 38 7708 4443 4.4 24 6 2 8 24% 11125 101434 22568 65%
c d  2.13 28 328 0 5 1175 38 7708 4425 4.4 24 6 2 8 24% 11055 101434 22567 64%
c u  2.16 28 328 0 5 1175 38 7708 3514 4.4 24 6 2 8 24% 11068 101434 22567 64%
c v  2.20 28 328 0 5 1175 38 7708 3007 4.4 24 6 2 8 24% 11068 101434 22567 64%
c w  2.25 28 328 0 5 1175 38 7708 2997 4.4 24 6 2 8 24% 11068 101434 22567 64%
c x  2.28 28 328 0 5 1175 38 7708 2997 4.4 24 6 2 8 24% 11068 101032 22567 64%
c =  2.43 28 328 0 5 1175 38 7708 2997 4.4 24 6 2 8 24% 11894 101032 22154 63%
c d  2.44 28 328 0 5 1175 38 7708 2992 4.4 24 6 2 8 24% 10981 101032 22154 63%
c t  2.45 28 328 0 5 1175 38 7708 2992 4.4 24 6 2 8 24% 10970 101032 22154 63%
c
c  seconds   switched    rate       size/glue tier1    binary          remaining
c         MB  reductions  conflicts       size  tier2      irredundant
c           level  restarts    redundant    glue   trail          variables
c
c f  2.51 28 328 0 5 1175 38 7708 2992 4.4 24 6 2 8 24% 13072 97879 23205 66%
c u  2.61 28 328 0 5 1175 38 7708 2810 4.4 24 6 2 8 24% 13073 97879 23205 66%
c v  2.64 28 328 0 5 1175 38 7708 2729 4.4 24 6 2 8 24% 13073 97879 23205 66%
c w  2.69 28 328 0 5 1175 38 7708 2721 4.4 24 6 2 8 24% 13073 97879 23205 66%
c x  2.73 28 328 0 5 1175 38 7708 2721 4.4 24 6 2 8 24% 13073 91972 23205 66%
c =  2.88 28 328 0 5 1175 38 7708 2721 4.4 24 6 2 8 24% 13775 91972 22854 65%
c d  2.88 28 328 0 5 1175 38 7708 2710 4.4 24 6 2 8 24% 12995 91972 22853 65%
c t  2.90 28 328 0 5 1175 38 7708 2710 4.4 24 6 2 8 24% 12957 91972 22853 65%
c f  2.95 28 328 0 5 1175 38 7708 2710 4.4 24 6 2 8 24% 12965 91957 22858 65%
c -  3.38 28 334 0 6 1329 37 9385 3651 4.4 24 6 2 7 24% 13016 91957 22858 65%
c o  3.52 28 336 0 6 1381 36 10064 4166 4.4 24 6 2 7 24% 13047 91957 22858 65%
c -  4.02 28 325 0 7 1584 36 11834 5061 4.4 25 6 2 7 24% 13115 91957 22858 65%
c s  4.32 28 337 0 7 1653 36 12506 5654 4.6 27 6 2 7 24% 13130 90996 22858 65%
c e  4.45 28 337 0 7 1653 36 12506 5654 4.6 27 6 2 7 24% 10573 92733 21043 60%
c s  4.46 28 337 0 7 1653 36 12506 5654 4.6 27 6 2 7 24% 10605 91561 21043 60%
c e  4.48 28 337 0 7 1653 36 12506 5654 4.6 27 6 2 7 24% 10519 91643 21016 60%
c ^  4.48 28 337 0 7 1653 36 12506 5654 4.6 27 6 2 7 24% 10519 91643 21016 60%
c -  4.93 28 331 0 8 1880 36 14479 5946 4.6 26 6 2 7 25% 10562 91643 21016 60%
c d  5.23 28 326 0 8 2047 36 15784 7128 4.6 27 6 2 7 25% 10319 91643 20849 60%
c u  5.26 28 326 0 8 2047 36 15784 5660 4.6 27 6 2 7 25% 10336 91643 20849 60%
c
c  seconds   switched    rate        size/glue tier1    binary          remaining
c         MB  reductions   conflicts       size  tier2      irredundant
c           level  restarts     redundant    glue   trail          variables
c
c v  5.29 28 326 0 8 2047 36 15784 4909 4.6 27 6 2 7 25% 10338 91643 20849 60%
c w  5.36 28 326 0 8 2047 36 15784 4902 4.6 27 6 2 7 25% 10338 91643 20849 60%
c x  5.40 28 326 0 8 2047 36 15784 4902 4.6 27 6 2 7 25% 10338 90616 20849 60%
c =  5.59 28 326 0 8 2047 36 15784 4902 4.6 27 6 2 7 25% 12858 90616 19589 56%
c d  5.60 28 326 0 8 2047 36 15784 4819 4.6 27 6 2 7 25% 9731 90616 19589 56%
c t  5.61 28 326 0 8 2047 36 15784 4819 4.6 27 6 2 7 25% 9704 90616 19589 56%
c f  5.66 28 326 0 8 2047 36 15784 4819 4.6 27 6 2 7 25% 9755 90512 19615 56%
c u  5.72 28 326 0 8 2047 36 15784 4454 4.6 27 6 2 7 25% 9759 90512 19615 56%
c v  5.73 28 326 0 8 2047 36 15784 4340 4.6 27 6 2 7 25% 9760 90512 19615 56%
c w  5.82 28 326 0 8 2047 36 15784 4303 4.6 27 6 2 7 25% 9760 90512 19615 56%
c x  5.84 28 326 0 8 2047 36 15784 4303 4.6 27 6 2 7 25% 9762 89285 19615 56%
c =  6.01 28 326 0 8 2047 36 15784 4303 4.6 27 6 2 7 25% 11296 89285 18848 54%
c d  6.01 28 326 0 8 2047 36 15784 4266 4.6 27 6 2 7 25% 9506 89285 18848 54%
c t  6.02 28 326 0 8 2047 36 15784 4266 4.6 27 6 2 7 25% 9505 89285 18848 54%
c -  6.28 28 321 0 9 2213 35 17307 5030 4.5 27 6 2 7 25% 9521 89285 18848 54%
c o  6.69 28 311 0 9 2489 34 20066 7557 4.4 26 6 2 7 26% 9551 89285 18848 54%
c -  6.74 28 309 0 10 2532 34 20307 6921 4.4 26 6 2 7 26% 9553 89285 18848 54%
c -  7.25 28 292 0 11 2868 34 23469 8523 4.4 27 6 2 7 26% 9614 89285 18848 54%
c s  7.51 28 299 0 11 3038 34 25006 9876 4.0 27 7 2 7 26% 9630 87751 18848 54%
c e  7.61 28 299 0 11 3038 34 25006 9876 4.0 27 7 2 7 26% 8412 90705 16265 46%
c
c  seconds   switched     rate        size/glue tier1    binary         remaining
c         MB   reductions   conflicts       size  tier2     irredundant
c           level   restarts     redundant    glue   trail         variables
c
c s  7.62 28 299 0 11 3038 34 25006 9876 4.0 27 7 2 7 26% 8415 85977 16265 46%
c e  7.66 28 299 0 11 3038 34 25006 9876 4.0 27 7 2 7 26% 8401 86001 16249 46%
c ^  7.66 28 299 0 11 3038 34 25006 9876 4.0 27 7 2 7 26% 8401 86001 16249 46%
c -  7.98 28 286 0 12 3205 33 26785 8068 3.9 26 7 2 7 27% 8408 86000 16249 46%
c d  7.99 28 286 0 12 3205 33 26912 8159 3.9 26 7 2 7 27% 8359 86000 16214 46%
c u  8.02 28 286 0 12 3205 33 26912 6758 3.9 26 7 2 7 27% 8366 86000 16214 46%
c v  8.05 28 286 0 12 3205 33 26912 5793 3.9 26 7 2 7 27% 8367 86000 16214 46%
c w  8.06 28 286 0 12 3205 33 26912 5793 3.9 26 7 2 7 27% 8367 86000 16214 46%
c x  8.15 28 286 0 12 3205 33 26912 5791 3.9 26 7 2 7 27% 8367 82525 16214 46%
c =  8.35 28 286 0 12 3205 33 26912 5791 3.9 26 7 2 7 27% 10403 82521 15196 43%
c d  8.36 28 286 0 12 3205 33 26912 5640 3.9 26 7 2 7 27% 8301 82521 15196 43%
c t  8.37 28 286 0 12 3205 33 26912 5640 3.9 26 7 2 7 27% 8291 82521 15196 43%
c f  8.42 28 286 0 12 3205 33 26912 5640 3.9 26 7 2 7 27% 8302 82450 15212 43%
c u  8.45 28 286 0 12 3205 33 26912 5144 3.9 26 7 2 7 27% 8303 82450 15212 43%
c v  8.47 28 286 0 12 3205 33 26912 4974 3.9 26 7 2 7 27% 8303 82450 15212 43%
c w  8.48 28 286 0 12 3205 33 26912 4974 3.9 26 7 2 7 27% 8303 82450 15212 43%
c x  8.57 28 286 0 12 3205 33 26912 4974 3.9 26 7 2 7 27% 8303 75105 15212 43%
c =  8.75 28 286 0 12 3205 33 26912 4974 3.9 26 7 2 7 27% 8545 75105 15091 43%
c d  8.76 28 286 0 12 3205 33 26912 4966 3.9 26 7 2 7 27% 8270 75105 15090 43%
c -  9.22 28 266 0 13 3395 31 30250 7179 3.6 24 7 2 7 28% 8273 75105 15090 43%
c
c  seconds   switched     rate        size/glue tier1    binary         remaining
c         MB   reductions   conflicts       size  tier2     irredundant
c           level   restarts     redundant    glue   trail         variables
c
c -  9.63 28 249 0 14 3644 29 33858 9329 3.4 23 7 2 7 29% 8283 75104 15090 43%
c -  9.98 28 235 0 15 3813 27 37599 10892 3.2 22 7 2 7 28% 8347 75104 15090 43%
c o 10.35 28 228 0 15 4060 27 40066 13205 3.2 21 7 2 7 29% 8353 75104 15090 43%
c c 10.57 28 225 0 15 4184 27 41254 14315 3.1 22 7 2 7 29% 8377 74951 15052 43%
c d 10.57 28 225 0 15 4184 27 41254 14200 3.1 22 7 2 7 29% 8298 74951 15050 43%
c u 10.61 28 225 0 15 4184 27 41254 12269 3.1 22 7 2 7 29% 8307 74951 15050 43%
c v 10.66 28 225 0 15 4184 27 41254 10744 3.1 22 7 2 7 29% 8307 74951 15050 43%
c w 10.69 28 225 0 15 4184 27 41254 10740 3.1 22 7 2 7 29% 8307 74951 15050 43%
c x 10.75 28 225 0 15 4184 27 41254 10740 3.1 22 7 2 7 29% 8307 74195 15050 43%
c = 10.93 28 225 0 15 4184 27 41254 10740 3.1 22 7 2 7 29% 9071 74195 14668 42%
c d 10.94 28 225 0 15 4184 27 41254 10623 3.1 22 7 2 7 29% 8266 74195 14668 42%
c t 10.95 28 225 0 15 4184 27 41254 10623 3.1 22 7 2 7 29% 8264 74195 14668 42%
c u 11.00 28 225 0 15 4184 27 41254 9972 3.1 22 7 2 7 29% 8267 74195 14668 42%
c v 11.03 28 225 0 15 4184 27 41254 9473 3.1 22 7 2 7 29% 8267 74195 14668 42%
c w 11.11 28 225 0 15 4184 27 41254 9467 3.1 22 7 2 7 29% 8267 74195 14668 42%
c x 11.17 28 225 0 15 4184 27 41254 9467 3.1 22 7 2 7 29% 8267 72783 14668 42%
c d 11.34 28 225 0 15 4184 27 41254 9466 3.1 22 7 2 7 29% 8265 72783 14667 42%
c - 11.40 28 224 0 16 4193 27 41472 8339 3.2 22 7 2 7 29% 8268 72783 14667 42%
c - 11.79 28 213 0 17 4417 25 45474 10558 3.0 21 7 2 7 29% 8290 72783 14667 42%
c - 12.20 28 204 0 18 4682 24 49599 12623 2.9 20 7 2 7 29% 8312 72783 14667 42%
c
c  seconds   switched     rate         size/glue tier1    binary         remaining
c         MB   reductions   conflicts        size  tier2     irredundant
c           level   restarts      redundant    glue   trail         variables
c
c s 12.56 28 200 0 18 4840 24 52110 14745 2.9 20 7 2 7 28% 8323 72017 14667 42%
c e 12.63 28 200 0 18 4840 24 52110 14745 2.9 20 7 2 7 28% 7490 73661 13897 40%
c s 12.63 28 200 0 18 4840 24 52110 14745 2.9 20 7 2 7 28% 7491 73404 13897 40%
c e 12.64 28 200 0 18 4840 24 52110 14745 2.9 20 7 2 7 28% 7482 73413 13886 40%
c ^ 12.64 28 200 0 18 4840 24 52110 14745 2.9 20 7 2 7 28% 7482 73413 13886 40%
c - 12.83 28 196 0 19 4952 23 53842 13014 2.9 20 7 2 7 28% 7498 73413 13886 40%
c - 13.50 28 190 0 20 5419 23 58202 14872 2.8 19 7 2 7 29% 7539 73413 13886 40%
c c 13.54 28 192 0 20 5422 23 58907 15450 2.8 19 7 2 7 28% 7598 73164 13839 40%
c d 13.54 28 192 0 20 5422 23 58907 15335 2.8 19 7 2 7 28% 7504 73164 13839 40%
c u 13.59 28 192 0 20 5422 23 58907 13013 2.8 19 7 2 7 28% 7516 73164 13839 40%
c v 13.63 28 192 0 20 5422 23 58907 11215 2.8 19 7 2 7 28% 7519 73164 13839 40%
c w 13.64 28 192 0 20 5422 23 58907 11198 2.8 19 7 2 7 28% 7519 73164 13839 40%
c x 13.70 28 192 0 20 5422 23 58907 11197 2.8 19 7 2 7 28% 7519 73024 13839 40%
c d 13.70 28 192 0 20 5422 23 58907 11188 2.8 19 7 2 7 28% 7507 73024 13833 40%
c t 13.71 28 192 0 20 5422 23 58907 11188 2.8 19 7 2 7 28% 7503 73024 13833 40%
c c 13.78 28 192 0 20 5422 23 58907 11188 2.8 19 7 2 7 28% 7514 72968 13826 40%
c d 13.78 28 192 0 20 5422 23 58907 11176 2.8 19 7 2 7 28% 7500 72968 13826 40%
c u 13.81 28 192 0 20 5422 23 58907 10780 2.8 19 7 2 7 28% 7507 72968 13826 40%
c v 13.84 28 192 0 20 5422 23 58907 10521 2.8 19 7 2 7 28% 7507 72968 13826 40%
c w 13.84 28 192 0 20 5422 23 58907 10510 2.8 19 7 2 7 28% 7507 72968 13826 40%
c
c  seconds   switched     rate         size/glue tier1    binary         remaining
c         MB   reductions   conflicts        size  tier2     irredundant
c           level   restarts      redundant    glue   trail         variables
c
c = 14.03 28 192 0 20 5422 23 58907 10510 2.8 19 7 2 7 28% 7677 72968 13741 39%
c d 14.04 28 192 0 20 5422 23 58907 10437 2.8 19 7 2 7 28% 7490 72968 13739 39%
c - 14.48 28 188 0 21 5674 23 62674 12214 2.8 19 7 2 7 29% 7527 72964 13739 39%
c - 15.01 28 182 0 22 6033 22 67257 14581 2.7 18 7 2 7 28% 7583 72964 13739 39%
c o 15.57 28 181 0 22 6389 22 70070 17179 2.7 19 7 2 7 29% 7593 72962 13739 39%
c - 15.96 28 180 0 23 6574 23 71947 16698 2.7 19 7 2 6 29% 7611 72962 13739 39%
c - 17.15 28 179 0 24 7096 23 76742 18510 2.7 19 7 2 6 29% 7654 72962 13739 39%
c d 17.68 28 177 0 24 7354 22 79992 20981 2.7 19 7 2 6 28% 7540 72956 13651 39%
c u 17.78 28 177 0 24 7354 22 79992 17588 2.7 19 7 2 6 28% 7565 72956 13651 39%
c v 17.88 28 177 0 24 7354 22 79992 15300 2.7 19 7 2 6 28% 7572 72956 13651 39%
c w 17.94 28 177 0 24 7354 22 79992 15297 2.7 19 7 2 6 28% 7572 72956 13651 39%
c x 18.03 28 177 0 24 7354 22 79992 15291 2.7 19 7 2 6 28% 7572 71549 13651 39%
c = 18.49 28 177 0 24 7354 22 79992 15291 2.7 19 7 2 6 28% 8364 71444 13245 38%
c d 18.49 28 177 0 24 7354 22 79992 14881 2.7 19 7 2 6 28% 7492 71444 13244 38%
c t 18.51 28 177 0 24 7354 22 79992 14881 2.7 19 7 2 6 28% 7487 71444 13244 38%
c c 18.59 28 177 0 24 7354 22 79992 14881 2.7 19 7 2 6 28% 7488 71412 13240 38%
c d 18.59 28 177 0 24 7354 22 79992 14881 2.7 19 7 2 6 28% 7480 71412 13240 38%
c u 18.66 28 177 0 24 7354 22 79992 13942 2.7 19 7 2 6 28% 7481 71412 13240 38%
c v 18.73 28 177 0 24 7354 22 79992 13541 2.7 19 7 2 6 28% 7481 71412 13240 38%
c w 18.86 28 177 0 24 7354 22 79992 13400 2.7 19 7 2 6 28% 7481 71412 13240 38%
c
c  seconds   switched     rate         size/glue tier1    binary         remaining
c         MB   reductions   conflicts        size  tier2     irredundant
c           level   restarts      redundant    glue   trail         variables
c
c x 18.96 28 177 0 24 7354 22 79992 13398 2.7 19 7 2 6 28% 7483 69492 13240 38%
c = 19.42 28 177 0 24 7354 22 79992 13398 2.7 19 7 2 6 28% 7839 69492 13062 37%
c d 19.43 28 177 0 24 7354 22 79992 13303 2.7 19 7 2 6 28% 7457 69492 13062 37%
c - 19.81 28 175 0 25 7480 22 81640 13228 2.7 19 7 2 6 28% 7458 69490 13062 37%
c - 20.82 28 173 0 26 7920 22 86640 15887 2.7 18 7 2 6 29% 7475 69490 13062 37%
c - 21.66 28 172 0 27 8595 22 91739 18227 2.7 19 7 2 6 29% 7513 69490 13062 37%
c s 22.21 28 170 0 27 9064 22 95827 21881 2.7 19 7 2 6 29% 7559 68155 13062 37%
c e 22.29 28 170 0 27 9064 22 95827 21881 2.7 19 7 2 6 29% 5200 74301 11730 34%
c s 22.30 28 170 0 27 9064 22 95827 21881 2.7 19 7 2 6 29% 5201 73973 11730 34%
c e 22.31 28 170 0 27 9064 22 95827 21881 2.7 19 7 2 6 29% 5182 74093 11683 33%
c ^ 22.31 28 170 0 27 9064 22 95827 21881 2.7 19 7 2 6 29% 5182 74093 11683 33%
c - 22.49 28 169 0 28 9189 22 96935 16121 2.7 19 7 2 5 29% 5182 74093 11683 33%
c - 23.21 28 166 0 29 9824 22 102227 18560 2.7 19 7 2 5 29% 5222 74091 11683 33%
c d 23.65 28 165 0 29 10120 22 104650 20741 2.7 19 7 2 5 29% 5194 74091 11664 33%
c u 23.72 28 165 0 29 10120 22 104650 17024 2.7 19 7 2 5 29% 5216 74091 11664 33%
c v 23.76 28 165 0 29 10120 22 104650 15054 2.7 19 7 2 5 29% 5220 74091 11664 33%
c w 23.89 28 165 0 29 10120 22 104650 14955 2.7 19 7 2 5 29% 5220 74091 11664 33%
c x 23.96 28 165 0 29 10120 22 104650 14955 2.7 19 7 2 5 29% 5220 73972 11664 33%
c = 24.39 28 165 0 29 10120 22 104650 14955 2.7 19 7 2 5 29% 5554 73972 11497 33%
c d 24.39 28 165 0 29 10120 22 104650 14741 2.7 19 7 2 5 29% 5176 73972 11495 33%
c
c  seconds   switched      rate          size/glue tier1    binary         remaining
c         MB   reductions    conflicts         size  tier2     irredundant
c           level   restarts        redundant    glue   trail         variables
c
c t 24.40 28 165 0 29 10120 22 104650 14741 2.7 19 7 2 5 29% 5171 73972 11495 33%
c f 24.44 28 165 0 29 10120 22 104650 14741 2.7 19 7 2 5 29% 5165 73969 11496 33%
c u 24.49 28 165 0 29 10120 22 104650 13780 2.7 19 7 2 5 29% 5166 73969 11496 33%
c v 24.52 28 165 0 29 10120 22 104650 13471 2.7 19 7 2 5 29% 5166 73969 11496 33%
c w 24.70 28 165 0 29 10120 22 104650 13176 2.7 19 7 2 5 29% 5166 73969 11496 33%
c = 25.20 28 165 0 29 10120 22 104650 13176 2.7 19 7 2 5 29% 5208 73969 11475 33%
c d 25.21 28 165 0 29 10120 22 104650 13146 2.7 19 7 2 5 29% 5155 73969 11474 33%
c - 25.69 28 164 0 30 10383 22 107614 14125 2.7 19 7 2 5 29% 5158 73969 11474 33%
c o 26.05 28 162 0 30 10616 22 110071 16461 2.6 19 7 2 5 30% 5159 73969 11474 33%
c - 26.50 28 161 0 31 10896 22 113091 15622 2.6 19 7 1 5 30% 5167 73969 11474 33%
c - 27.19 28 159 0 32 11321 22 118659 17174 2.6 19 7 1 5 30% 5194 73966 11474 33%
c i 27.22 28 160 0 32 11343 22 119554 17883 2.6 19 7 1 5 29% 5206 73966 11473 33%
c - 27.77 28 159 0 33 11679 21 124315 18254 2.6 19 7 1 5 29% 5262 73962 11473 33%
c - 28.79 28 157 0 34 12347 21 130060 19597 2.6 20 7 1 5 29% 5291 73962 11473 33%
c c 29.40 28 156 0 34 12768 22 132928 22282 2.7 20 8 1 5 30% 5349 73505 11383 33%
c d 29.41 28 156 0 34 12768 22 132928 21811 2.7 20 8 1 5 30% 5169 73505 11383 33%
c u 29.45 28 156 0 34 12768 22 132928 19415 2.7 20 8 1 5 30% 5184 73505 11383 33%
c v 29.52 28 156 0 34 12768 22 132928 15973 2.7 20 8 1 5 30% 5192 73505 11383 33%
c w 29.66 28 156 0 34 12768 22 132928 15931 2.7 20 8 1 5 30% 5192 73505 11383 33%
c x 29.73 28 156 0 34 12768 22 132928 15930 2.7 20 8 1 5 30% 5192 73487 11383 33%
c
c  seconds   switched      rate          size/glue tier1    binary         remaining
c         MB   reductions    conflicts         size  tier2     irredundant
c           level   restarts        redundant    glue   trail         variables
c
c = 30.20 28 156 0 34 12768 22 132928 15930 2.7 20 8 1 5 30% 5210 73477 11373 33%
c d 30.20 28 156 0 34 12768 22 132928 15888 2.7 20 8 1 5 30% 5173 73477 11366 32%
c t 30.21 28 156 0 34 12768 22 132928 15888 2.7 20 8 1 5 30% 5169 73477 11366 32%
c u 30.27 28 156 0 34 12768 22 132928 15266 2.7 20 8 1 5 30% 5176 73477 11366 32%
c v 30.31 28 156 0 34 12768 22 132928 14611 2.7 20 8 1 5 30% 5177 73477 11366 32%
c w 30.53 28 156 0 34 12768 22 132928 14069 2.7 20 8 1 5 30% 5177 73477 11366 32%
c = 30.99 28 156 0 34 12768 22 132928 14069 2.7 20 8 1 5 30% 5323 73477 11293 32%
c d 31.00 28 156 0 34 12768 22 132928 14015 2.7 20 8 1 5 30% 5159 73477 11293 32%
c - 31.41 28 155 0 35 12990 21 135893 14107 2.7 20 8 1 5 30% 5164 73477 11293 32%
c - 32.22 28 153 0 36 13536 21 141809 16778 2.6 20 8 1 5 30% 5174 73474 11293 32%
c i 32.41 28 153 0 36 13675 21 143006 17864 2.6 20 8 1 5 30% 5184 73474 11292 32%
c - 33.07 28 152 0 37 14104 21 147809 18891 2.6 20 8 1 5 30% 5186 73474 11292 32%
c - 33.98 28 149 0 38 14701 21 153894 20593 2.6 20 8 1 5 30% 5210 73474 11292 32%
c s 34.54 28 148 0 38 15046 21 157967 24350 2.6 20 8 1 5 30% 5224 72010 11292 32%
c e 34.64 28 148 0 38 15046 21 157967 24350 2.6 20 8 1 5 30% 2814 83899 9689 28%
c s 34.67 28 148 0 38 15046 21 157967 24350 2.6 20 8 1 5 30% 2814 83072 9689 28%
c e 34.69 28 148 0 38 15046 21 157967 24350 2.6 20 8 1 5 30% 2791 83215 9653 28%
c ^ 34.69 28 148 0 38 15046 21 157967 24350 2.6 20 8 1 5 30% 2791 83215 9653 28%
c - 35.06 28 147 0 39 15246 21 160058 15638 2.6 20 8 1 5 30% 2792 83214 9653 28%
c o 35.07 28 147 0 39 15247 21 160107 15685 2.6 20 8 1 5 30% 2792 83214 9653 28%
c
c  seconds   switched      rate          size/glue tier1    binary        remaining
c         MB   reductions    conflicts         size  tier2     irredundant
c           level   restarts        redundant    glue   trail        variables
c
c c 35.77 28 145 0 39 15669 21 164942 20181 2.6 20 8 1 5 30% 2824 83067 9632 28%
c d 35.78 28 145 0 39 15669 21 164942 20044 2.6 20 8 1 5 30% 2782 83067 9632 28%
c u 35.82 28 145 0 39 15669 21 164942 17840 2.6 20 8 1 5 30% 2796 83067 9631 28%
c v 35.89 28 145 0 39 15669 21 164942 14371 2.6 20 8 1 5 30% 2799 83067 9631 28%
c w 36.10 28 145 0 39 15669 21 164942 13691 2.6 20 8 1 5 30% 2799 83067 9631 28%
c = 36.64 28 145 0 39 15669 21 164942 13691 2.6 20 8 1 5 30% 2861 82953 9593 27%
c d 36.64 28 145 0 39 15669 21 164942 13529 2.6 20 8 1 5 30% 2797 82953 9593 27%
c t 36.65 28 145 0 39 15669 21 164942 13529 2.6 20 8 1 5 30% 2792 82953 9593 27%
c f 36.74 28 145 0 39 15669 21 164942 13529 2.6 20 8 1 5 30% 2810 82568 9612 27%
c u 36.81 28 145 0 39 15669 21 164942 13054 2.6 20 8 1 5 30% 2809 82568 9612 27%
c v 36.85 28 145 0 39 15669 21 164942 12498 2.6 20 8 1 5 30% 2814 82568 9612 27%
c w 37.01 28 145 0 39 15669 21 164942 12309 2.6 20 8 1 5 30% 2814 82568 9612 27%
c x 37.11 28 145 0 39 15669 21 164942 12284 2.6 20 8 1 5 30% 2814 80757 9612 27%
c t 37.65 28 145 0 39 15669 21 164942 12284 2.6 20 8 1 5 30% 2812 80757 9612 27%
c i 37.66 28 145 0 39 15669 21 164942 12284 2.6 20 8 1 5 30% 2812 80757 9612 27%
c - 37.82 28 145 0 40 15745 21 166302 11373 2.6 20 8 1 5 30% 2812 80754 9612 27%
c i 38.10 28 145 0 40 15891 20 168962 13874 2.5 20 8 1 5 31% 2815 80754 9611 27%
c i 38.33 28 144 0 40 16007 20 170778 15591 2.5 20 8 1 5 31% 2817 80754 9606 27%
c i 38.37 28 144 0 40 16039 20 171199 15957 2.5 20 8 1 5 31% 2821 80754 9605 27%
c i 38.40 28 144 0 40 16050 20 171592 16298 2.5 20 8 1 5 31% 2826 80753 9604 27%
c
c  seconds   switched      rate          size/glue tier1    binary        remaining
c         MB   reductions    conflicts         size  tier2     irredundant
c           level   restarts        redundant    glue   trail        variables
c
c - 38.50 28 144 0 41 16121 20 172626 14213 2.5 20 8 1 5 31% 2810 80752 9604 27%
c i 38.72 28 143 0 41 16272 20 174799 16195 2.5 20 8 1 5 31% 2815 80752 9602 27%
c i 38.75 28 143 0 41 16301 20 175056 16431 2.5 20 8 1 5 31% 2818 80752 9600 27%
c i 38.78 28 143 0 41 16331 20 175352 16691 2.5 20 8 1 5 31% 2822 80752 9599 27%
c i 38.83 28 142 0 41 16383 20 175958 17195 2.5 20 8 1 5 30% 2831 80752 9598 27%
c - 39.06 28 141 0 42 16590 20 179032 16489 2.5 20 8 1 5 30% 2809 80752 9598 27%
c i 39.10 28 141 0 42 16631 20 179875 17211 2.5 20 8 1 5 30% 2820 80752 9597 27%
c i 39.11 28 140 0 42 16641 20 180030 17348 2.5 20 8 1 5 30% 2820 80752 9596 27%
c i 39.11 28 140 0 42 16642 20 180044 17350 2.5 20 8 1 5 30% 2820 80752 9595 27%
c i 39.13 28 140 0 42 16654 20 180225 17516 2.5 20 8 1 5 30% 2820 80752 9594 27%
c i 39.13 28 140 0 42 16658 19 180249 17525 2.5 20 8 1 5 30% 2823 80752 9593 27%
c i 39.13 28 140 0 42 16663 19 180386 17631 2.5 20 8 1 5 30% 2828 80752 9592 27%
c i 39.19 30 140 0 42 16733 19 181238 18414 2.5 20 8 1 5 30% 2832 80751 9591 27%
c i 39.22 30 139 0 42 16789 19 181815 18920 2.5 20 8 1 5 30% 2836 80750 9590 27%
c - 39.37 30 137 0 43 17013 19 185513 17354 2.5 20 8 1 5 29% 2839 80749 9590 27%
c i 39.55 30 133 0 43 17276 18 189777 21101 2.5 20 8 1 5 28% 2858 80748 9589 27%
c - 39.64 30 131 0 44 17409 18 192071 17486 2.5 19 8 1 5 28% 2873 80748 9589 27%
c i 39.78 30 128 0 44 17675 18 195859 20790 2.5 19 8 1 5 27% 2893 80748 9587 27%
c i 39.81 30 127 0 44 17751 18 196659 21463 2.5 19 8 1 5 27% 2903 80748 9586 27%
c - 39.87 30 126 0 45 17848 17 198705 17885 2.5 19 8 1 5 26% 2897 80748 9586 27%
c
c  seconds   switched      rate          size/glue tier1    binary        remaining
c         MB   reductions    conflicts         size  tier2     irredundant
c           level   restarts        redundant    glue   trail        variables
c
c i 39.91 30 124 0 45 17875 17 200757 19594 2.5 19 8 1 5 26% 2906 80748 9585 27%
c d 39.92 30 124 0 45 17875 17 200757 19102 2.5 19 8 1 5 26% 2843 80434 9544 27%
c d 39.92 30 124 0 45 17875 17 200757 19101 2.5 19 8 1 5 26% 2823 80434 9534 27%
c b 39.92 30 124 0 45 17875 17 200757 19101 2.5 19 8 1 5 26% 2823 80434 9533 27%
c u 39.96 30 124 0 45 17875 17 200757 16831 2.5 19 8 1 5 26% 2842 80434 9531 27%
c v 40.01 30 124 0 45 17875 17 200757 13409 2.5 19 8 1 5 26% 2843 80434 9531 27%
c w 40.05 30 124 0 45 17875 17 200757 12940 2.5 19 8 1 5 26% 2843 80434 9531 27%
c d 40.05 30 124 0 45 17875 17 200757 12914 2.5 19 8 1 5 26% 2823 80410 9521 27%
c t 40.06 30 124 0 45 17875 17 200757 12914 2.5 19 8 1 5 26% 2819 80410 9521 27%
c c 40.09 30 124 0 45 17875 17 200757 12914 2.5 19 8 1 5 26% 2812 80358 9515 27%
c d 40.10 30 124 0 45 17875 17 200757 12894 2.5 19 8 1 5 26% 2800 80358 9515 27%
c u 40.13 30 124 0 45 17875 17 200757 12499 2.5 19 8 1 5 26% 2808 80358 9514 27%
c v 40.16 30 124 0 45 17875 17 200757 11750 2.5 19 8 1 5 26% 2810 80358 9513 27%
c w 40.19 30 124 0 45 17875 17 200757 11604 2.5 19 8 1 5 26% 2810 80358 9513 27%
c x 40.26 30 124 0 45 17875 17 200757 11604 2.5 19 8 1 5 26% 2812 80301 9513 27%
c = 40.56 30 124 0 45 17875 17 200757 11604 2.5 19 8 1 5 26% 2906 80216 9458 27%
c d 40.57 30 124 0 45 17875 17 200757 11409 2.5 19 8 1 5 26% 2797 80208 9458 27%
c t 40.57 30 124 0 45 17875 17 200757 11409 2.5 19 8 1 5 26% 2793 80208 9458 27%
c i 40.58 30 124 0 45 17875 17 200757 11409 2.5 19 8 1 5 26% 2793 80208 9458 27%
c i 40.58 30 124 0 45 17875 17 200799 11432 2.5 19 8 1 5 26% 2796 80204 9456 27%
c
c  seconds   switched      rate          size/glue tier1    binary        remaining
c         MB   reductions    conflicts         size  tier2     irredundant
c           level   restarts        redundant    glue   trail        variables
c
c i 40.58 30 124 0 45 17875 17 200800 11432 2.5 19 8 1 5 26% 2796 80204 9451 27%
c } 40.58 30 124 0 45 17875 17 200803 11432 2.5 19 8 1 5 26% 2797 80204 9423 27%
c 0 40.58 30 124 0 45 17875 17 200803 11432 2.5 19 8 1 5 26% 2797 80204 9423 27%
c
c ---- [ result ] ------------------------------------------------------------
c
s UNSATISFIABLE
c
c ---- [ profiling ] ---------------------------------------------------------
c
c          27.59   67.98 %  search
c          27.59   67.98 %  focused
c          12.65   31.18 %  simplify
c          12.11   29.84 %  probe
c           5.91   14.56 %  sweep
c           4.35   10.72 %  vivify
c           0.74    1.81 %  eliminate
c           0.67    1.65 %  factor
c           0.53    1.32 %  congruence
c           0.48    1.17 %  substitute
c           0.29    0.72 %  preprocess
c           0.19    0.47 %  reduce
c           0.13    0.33 %  subsume
c           0.12    0.29 %  transitive
c           0.10    0.24 %  fastel
c           0.05    0.13 %  backbone
c           0.03    0.06 %  lucky
c           0.02    0.05 %  parse
c =============================================
c          40.58  100.00 %  total
c
c ---- [ statistics ] --------------------------------------------------------
c
c chronological:                         4508                2 %  conflicts
c conflicts:                           200803             4947.90 per second
c congruent:                             3704               11 %  variables
c decisions:                          3764827               18.75 per conflict
c eliminated:                           19212               55 %  variables
c factored:                              3772               11 %  variables
c fast_eliminated:                      10972               57 %  eliminated
c fast_strengthened:                        3                0 %  per strengthened
c fast_subsumed:                           53                0 %  per subsumed
c iterations:                              25                0 %  variables
c propagations:                     176833704          4357281    per second
c reductions:                              45             4462    interval
c reordered:                                6            33467    interval
c restarts:                             17875               11    interval
c strengthened:                          4464                0 %  checks
c substituted:                          10027               29 %  variables
c subsumed:                             13380                0 %  checks
c switched:                                 0                0    interval
c vivified:                             96970               13 %  checks
c
c ---- [ glue usage ] --------------------------------------------------------
c
c focused glue 1 used 279499 clauses 55.41% accumulated 55.41% tier1
c focused glue 2 used 109314 clauses 21.67% accumulated 77.08%
c focused glue 3 used  36406 clauses  7.22% accumulated 84.30%
c focused glue 4 used  20132 clauses  3.99% accumulated 88.29%
c focused glue 5 used  12499 clauses  2.48% accumulated 90.77% tier2
c
c ---- [ resources ] ---------------------------------------------------------
c
c maximum-resident-set-size:         31408128 bytes         30 MB
c process-time:                            41s              40.58 seconds
c
c ---- [ shutting down ] -----------------------------------------------------
c
c exit 20
